benchmarks/bfuzz0/31247149817198122022529713681742029776.smt2
(set-logic QF_FP)
(declare-const x0 (_ FloatingPoint 11 53))
(declare-const x1 (_ FloatingPoint 11 53))
(declare-const x2 (_ FloatingPoint 11 53))
(declare-const x3 (_ FloatingPoint 11 53))
(declare-const x4 (_ FloatingPoint 11 53))
(declare-const x5 (_ FloatingPoint 11 53))
(declare-const x6 (_ FloatingPoint 11 53))
(declare-const x7 (_ FloatingPoint 11 53))
(declare-const x8 (_ FloatingPoint 11 53))
(declare-const x9 (_ FloatingPoint 11 53))
(declare-const x10 (_ FloatingPoint 11 53))
(declare-const x11 (_ FloatingPoint 11 53))
(assert (fp.eq (fp.div RNE (fp.neg x7) (fp.mul RNE x0 x11)) (fp.add RNE (fp.sub RNE x1 x11) (fp.neg x6))))
(assert (fp.leq (fp.add RNE (fp.neg x1) (fp.sub RNE x4 x8)) (fp.add RNE (fp.add RNE x2 x7) (fp.mul RNE x7 x2))))
(check-sat)
