db/data/31247149817198122022529713681742029776.z3.out
sat
-------------------
1408.892574024
